MINIMIZE
   +1. C0000000
   +1. C0000001
   +1. C0000002
   +1. C0000003

SUBJECT TO
R0000000)   +3. C0000000
   +2. C0000003
   = +20. 
R0000001)   +6. C0000001
   +9. C0000003
   > +20. 
R0000002)   +4. C0000000
   +5. C0000001
   +8. C0000002
   = +40. 
R0000003)   +7. C0000001
   +1. C0000002
   > +10. 

END
SLB   C0000000 +2.
SUB   C0000000 +5.
SLB   C0000001 +1.
SLB   C0000002 -1000000000000000000000000000000.
SUB   C0000002 +10.
FREE C0000003
